
--- Job ColorCounties.gms Start 01/23/22 19:53:32 37.1.0 r07954d5 WEX-WEI x86 64bit/MS Windows
--- Applying:
    C:\GAMS\37\gmsprmNT.txt
--- GAMS Parameters defined
    Input C:\projects\OptimizationModels\GraphColoring\ColorCounties.gms
    PageWidth 140
    PageSize 0
    PageContr 3
    Action CE
    ScrDir C:\projects\OptimizationModels\GraphColoring\225b\
    SysDir C:\GAMS\37\
    WorkDir C:\projects\OptimizationModels\GraphColoring\
    LogOption 3
    DFormat 0
    TFormat 0
    ErrorLog 99
    IDE 1
Licensee: Eval License                                   G211206|0002CO-GEN
          Amsterdam Optimization Modeling Group,                     DCE378
          C:\GAMS\37\gamslice.txt
          License Admin: Erwin Kalvelagen, info@amsterdamoptimization.com  
          Evaluation license: Not for commercial or production use
Processor information: 1 socket(s), 8 core(s), and 16 thread(s) available
GAMS 37.1.0   Copyright (C) 1987-2021 GAMS Development. All rights reserved
--- Starting compilation
--- ColorCounties.gms(23) 3 Mb
--- . data.inc(6188) 4 Mb
--- ColorCounties.gms(93) 4 Mb
--- Starting execution: elapsed 0:00:00.069
--- ColorCounties.gms(6261) 5 Mb
--- Generating MIP model color
--- ColorCounties.gms(6262) 27 Mb
---   50,616 rows  16,111 columns  158,289 non-zeroes
---   16,110 discrete-columns
--- Executing CPLEX (Solvelink=2): elapsed 0:00:00.158

IBM ILOG CPLEX   37.1.0 r07954d5 Released Nov 11, 2021 WEI x86 64bit/MS Window

--- GAMS/Cplex Link licensed for continuous and discrete problems.
--- GMO setup time: 0.00s
--- Space for names approximately 2.29 Mb
--- Use option 'names no' to turn use of names off
--- GMO memory 15.00 Mb (peak 15.13 Mb)
--- Dictionary memory 0.00 Mb
--- Cplex 20.1.0.1 link memory 0.89 Mb (peak 5.36 Mb)
--- Starting Cplex

Version identifier: 20.1.0.1 | 2021-04-07 | 3a818710c
CPXPARAM_Advance                                 0
CPXPARAM_Threads                                 16
CPXPARAM_Parallel                                1
CPXPARAM_MIP_Display                             4
CPXPARAM_MIP_Pool_Capacity                       0
CPXPARAM_MIP_Tolerances_AbsMIPGap                0
CPXPARAM_MIP_Tolerances_MIPGap                   0
Generic callback                                 0x50
Tried aggregator 1 time.
MIP Presolve eliminated 28325 rows and 16 columns.
MIP Presolve modified 18958 coefficients.
Reduced MIP has 22290 rows, 16095 columns, and 93365 nonzeros.
Reduced MIP has 16095 binaries, 0 generals, 0 SOSs, and 0 indicators.
Presolve time = 4.83 sec. (4531.42 ticks)
Found incumbent of value 5.000000 after 5.03 sec. (4829.11 ticks)
Probing fixed 2 vars, tightened 0 bounds.
Probing changed sense of 1 constraints.
Probing time = 0.03 sec. (8.29 ticks)
Tried aggregator 1 time.
Detecting symmetries...
MIP Presolve eliminated 2 rows and 2 columns.
Reduced MIP has 22288 rows, 16093 columns, and 85729 nonzeros.
Reduced MIP has 16093 binaries, 0 generals, 0 SOSs, and 0 indicators.
Presolve time = 0.13 sec. (208.79 ticks)
Probing time = 0.02 sec. (5.46 ticks)
Clique table members: 41805.
MIP emphasis: balance optimality and feasibility.
MIP search method: dynamic search.
Parallel mode: deterministic, using up to 16 threads.
Parallel mode: deterministic, using up to 3 threads for parallel tasks at root LP.
Parallel mode: deterministic, using up to 13 threads for concurrent optimization:
 * Starting dual Simplex on 1 thread...
 * Starting Barrier on 11 threads...
 * Starting primal Simplex on 1 thread...
Tried aggregator 1 time.
No LP presolve or aggregator reductions.
Presolve time = 0.02 sec. (12.12 ticks)
Initializing dual steep norms . . .

Iteration log . . .
Iteration:     1   Dual objective     =             2.000000
Perturbation started.
Iteration:   101   Dual objective     =             2.000000
Iteration:   554   Dual objective     =             2.000098
Iteration:  1080   Dual objective     =             2.000199
Iteration:  1615   Dual objective     =             2.000295
Iteration:  2111   Dual objective     =             2.000389
Iteration:  2603   Dual objective     =             2.000449
Iteration:  3075   Dual objective     =             2.000507
Iteration:  3510   Dual objective     =             2.000564
Iteration:  4022   Dual objective     =             4.000414
Iteration:  4596   Dual objective     =             4.000448
Iteration:  5014   Dual objective     =             4.000472
Iteration:  5523   Dual objective     =             4.000494
Iteration:  5794   Dual objective     =             4.000512
Iteration:  6074   Dual objective     =             4.000527
Iteration:  6351   Dual objective     =             4.000543
Iteration:  6584   Dual objective     =             4.000554
Iteration:  6908   Dual objective     =             4.000565
Iteration:  7129   Dual objective     =             4.000576
Iteration:  7351   Dual objective     =             4.000587
Iteration:  7566   Dual objective     =             4.000595
Iteration:  7773   Dual objective     =             4.000603
Removing perturbation.

Barrier solved model.

Root relaxation solution time = 1.38 sec. (1637.19 ticks)

        Nodes                                         Cuts/
   Node  Left     Objective  IInf  Best Integer    Best Bound    ItCnt     Gap

*     0+    0                            5.0000        2.0000            60.00%
Found incumbent of value 5.000000 after 6.63 sec. (6726.37 ticks)
      0     0        4.0000 12049        5.0000        4.0000        9   20.00%
      0     0        4.0000  6236        5.0000     Cuts: 201    22682   20.00%
      0     0        4.0000  7079        5.0000    Cuts: 1488    31823   20.00%
      0     0        4.0000  4623        5.0000      Cuts: 55    32974   20.00%
      0     0        4.0000  5778        5.0000     Cuts: 951    39691   20.00%
      0     2        4.0000  3319        5.0000        4.0000    39691   20.00%
Elapsed time = 47.88 sec. (57420.01 ticks, tree = 0.02 MB)
      1     3        4.0000  2915        5.0000        4.0000    51453   20.00%
      3     5        4.0000  2704        5.0000        4.0000    52261   20.00%
      4     6        4.0000  2848        5.0000        4.0000    52813   20.00%
      6     8        4.0000  3046        5.0000        4.0000    53797   20.00%
     10     6        4.0000  2767        5.0000        4.0000    52442   20.00%
     13     7        4.0000  2832        5.0000        4.0000    52844   20.00%
                                                     Cuts: 66                  
     16    15        4.0000  3321        5.0000        4.0000    58906   20.00%
                                                     Cuts: 25                  
     22    23        4.0000  3451        5.0000        4.0000    60234   20.00%
                                                      Cuts: 6                  
     31    30        4.0000  3369        5.0000        4.0000    61189   20.00%
                                                      Cuts: 3                  
     84    56        4.0000  3220        5.0000        4.0000    83871   20.00%
                                                   Cliques: 3                  
Elapsed time = 62.45 sec. (65058.82 ticks, tree = 0.18 MB)
    258   153        4.0000  3616        5.0000        4.0000   124835   20.00%
                                                     Cuts: 36                  
    371   330        4.0000  3711        5.0000        4.0000   173101   20.00%
                                                     Cuts: 27                  
    523   445        4.0000  2748        5.0000        4.0000   222338   20.00%
                                                  Cliques: 16                  
    827   631        4.0000  3642        5.0000        4.0000   246177   20.00%
   1194  1028        4.0000  3026        5.0000        4.0000   298138   20.00%
   1607  1371        4.0000  3209        5.0000        4.0000   334682   20.00%
   1958  1508        4.0000  2179        5.0000        4.0000   359224   20.00%
                                                     Cuts: 42                  
   2237  1766        4.0000  1680        5.0000        4.0000   408178   20.00%
                                                     Cuts: 37                  
   2724  2124        4.0000  1432        5.0000        4.0000   497958   20.00%
                                                     Cuts: 11                  
   3486  2828        4.0000  1756        5.0000        4.0000   559048   20.00%
Elapsed time = 88.75 sec. (74622.94 ticks, tree = 396.72 MB)
   4311  3429        4.0000  1273        5.0000        4.0000   601682   20.00%
                                                  Cliques: 21                  
   4881  3427        4.0000  3238        5.0000        4.0000   608127   20.00%
                                                      Cuts: 8                  
   4883     3        4.0000  3334        5.0000        4.0000    65388   20.00%

Performing restart 1

Repeating presolve.
Tried aggregator 1 time.
MIP Presolve eliminated 4321 rows and 3665 columns.
Reduced MIP has 17967 rows, 12428 columns, and 57816 nonzeros.
Reduced MIP has 12428 binaries, 0 generals, 0 SOSs, and 0 indicators.
Presolve time = 0.05 sec. (37.61 ticks)
Tried aggregator 1 time.
Reduced MIP has 17967 rows, 12428 columns, and 57816 nonzeros.
Reduced MIP has 12428 binaries, 0 generals, 0 SOSs, and 0 indicators.
Presolve time = 0.03 sec. (46.97 ticks)
Represolve time = 0.52 sec. (189.54 ticks)
Tried aggregator 1 time.
No LP presolve or aggregator reductions.
Presolve time = 0.02 sec. (9.25 ticks)
Initializing dual steep norms . . .

Iteration log . . .
Iteration:     1   Dual objective     =             4.000000
Perturbation started.
Iteration:   101   Dual objective     =             4.000000
Iteration:   651   Dual objective     =             4.000139
Iteration:  1205   Dual objective     =             4.000247
Iteration:  1771   Dual objective     =             4.000352
Iteration:  2332   Dual objective     =             4.000403
Iteration:  2883   Dual objective     =             4.000450
Iteration:  3432   Dual objective     =             4.000489
Iteration:  3949   Dual objective     =             4.000521
Iteration:  4435   Dual objective     =             4.000548
Iteration:  4911   Dual objective     =             4.000574
Iteration:  5257   Dual objective     =             4.000593
Iteration:  5586   Dual objective     =             4.000609
Iteration:  5871   Dual objective     =             4.000622
Iteration:  6161   Dual objective     =             4.000636
Iteration:  6416   Dual objective     =             4.000646
Iteration:  6678   Dual objective     =             4.000658
Iteration:  6909   Dual objective     =             4.000667
Iteration:  7134   Dual objective     =             4.000675
Iteration:  7336   Dual objective     =             4.000681
Iteration:  7516   Dual objective     =             4.000687
Iteration:  7688   Dual objective     =             4.000693
Iteration:  7846   Dual objective     =             4.000698
Iteration:  8012   Dual objective     =             4.000704
Iteration:  8192   Dual objective     =             4.000709
Iteration:  8324   Dual objective     =             4.000713
Iteration:  8461   Dual objective     =             4.000716
Iteration:  8602   Dual objective     =             4.000721
Iteration:  8750   Dual objective     =             4.000724
Iteration:  8896   Dual objective     =             4.000728
Iteration:  9052   Dual objective     =             4.000732
Iteration:  9199   Dual objective     =             4.000734
Iteration:  9353   Dual objective     =             4.000738
Iteration:  9482   Dual objective     =             4.000740
Iteration:  9624   Dual objective     =             4.000744
Iteration:  9755   Dual objective     =             4.000746
Iteration:  9892   Dual objective     =             4.000749
Iteration: 10022   Dual objective     =             4.000752
Iteration: 10158   Dual objective     =             4.000754
Iteration: 10291   Dual objective     =             4.000758
Iteration: 10420   Dual objective     =             4.000760
Iteration: 10560   Dual objective     =             4.000763
Iteration: 10691   Dual objective     =             4.000766
Iteration: 10813   Dual objective     =             4.000768
Iteration: 10944   Dual objective     =             4.000770
Iteration: 11069   Dual objective     =             4.000773
Iteration: 11195   Dual objective     =             4.000776
Iteration: 11323   Dual objective     =             4.000778
Iteration: 11471   Dual objective     =             4.000780
Iteration: 11599   Dual objective     =             4.000782
Iteration: 11728   Dual objective     =             4.000784
Iteration: 11854   Dual objective     =             4.000786
Iteration: 11986   Dual objective     =             4.000787
Iteration: 12112   Dual objective     =             4.000790
Iteration: 12240   Dual objective     =             4.000791
Iteration: 12371   Dual objective     =             4.000793
Iteration: 12499   Dual objective     =             4.000795
Iteration: 12634   Dual objective     =             4.000796
Iteration: 12760   Dual objective     =             4.000798
Iteration: 12890   Dual objective     =             4.000800
Iteration: 13021   Dual objective     =             4.000802
Iteration: 13152   Dual objective     =             4.000803
Iteration: 13284   Dual objective     =             4.000805
Iteration: 13414   Dual objective     =             4.000806
Iteration: 13551   Dual objective     =             4.000808
Iteration: 13689   Dual objective     =             4.000809
Iteration: 13815   Dual objective     =             4.000811
Iteration: 13937   Dual objective     =             4.000812
Iteration: 14065   Dual objective     =             4.000813
Iteration: 14192   Dual objective     =             4.000815
Iteration: 14324   Dual objective     =             4.000816
Iteration: 14462   Dual objective     =             4.000817
Iteration: 14594   Dual objective     =             4.000818
Iteration: 14726   Dual objective     =             4.000820
Iteration: 14850   Dual objective     =             4.000821
Iteration: 14981   Dual objective     =             4.000823
Iteration: 15111   Dual objective     =             4.000824
Iteration: 15243   Dual objective     =             4.000825
Iteration: 15369   Dual objective     =             4.000827
Iteration: 15499   Dual objective     =             4.000827
Iteration: 15629   Dual objective     =             4.000829
Iteration: 15760   Dual objective     =             4.000830
Iteration: 15887   Dual objective     =             4.000832
Iteration: 16011   Dual objective     =             4.000833
Iteration: 16138   Dual objective     =             4.000834
Iteration: 16261   Dual objective     =             4.000835
Iteration: 16384   Dual objective     =             4.000835
Iteration: 16512   Dual objective     =             4.000837
Iteration: 16647   Dual objective     =             4.000838
Iteration: 16775   Dual objective     =             4.000839
Iteration: 16900   Dual objective     =             4.000840
Iteration: 17024   Dual objective     =             4.000841
Iteration: 17153   Dual objective     =             4.000843
Iteration: 17280   Dual objective     =             4.000843
Iteration: 17405   Dual objective     =             4.000844
Iteration: 17539   Dual objective     =             4.000845
Iteration: 17666   Dual objective     =             4.000846
Iteration: 17797   Dual objective     =             4.000847
Iteration: 17920   Dual objective     =             4.000848
Iteration: 18043   Dual objective     =             4.000849
Iteration: 18172   Dual objective     =             4.000850
Elapsed time = 6.72 sec. (10000.30 ticks, 18199 iterations)
Iteration: 18306   Dual objective     =             4.000851
Iteration: 18439   Dual objective     =             4.000852
Iteration: 18571   Dual objective     =             4.000853
Iteration: 18706   Dual objective     =             4.000854
Iteration: 18840   Dual objective     =             4.000854
Iteration: 18967   Dual objective     =             4.000855
Iteration: 19096   Dual objective     =             4.000855
Iteration: 19224   Dual objective     =             4.000856
Iteration: 19350   Dual objective     =             4.000856
Iteration: 19476   Dual objective     =             4.000856
Iteration: 19610   Dual objective     =             4.000857
Iteration: 19740   Dual objective     =             4.000858
Iteration: 19867   Dual objective     =             4.000858
Iteration: 20016   Dual objective     =             4.000859
Iteration: 20140   Dual objective     =             4.000859
Iteration: 20273   Dual objective     =             4.000859
Iteration: 20408   Dual objective     =             4.000859
Removing perturbation.
   4884     0        4.0000  6130        5.0000     Cuts: 213   723799   20.00%
   4884     0        4.0000  6718        5.0000    Cuts: 1563   734068   20.00%
   4884     0        4.0000  4030        5.0000      Cuts: 66   735353   20.00%
   4884     0        4.0000  5067        5.0000    Cuts: 1279   742444   20.00%
   4884     0        4.0000  3342        5.0000      Cuts: 25   742908   20.00%
   4884     0        4.0000  4654        5.0000    Cuts: 1240   748099   20.00%
   4884     0        4.0000  3389        5.0000      Cuts: 48   748949   20.00%
   4884     0        4.0000  4354        5.0000     Cuts: 949   752845   20.00%
   4884     2        4.0000  3088        5.0000        4.0000   752845   20.00%
   4885     3        4.0000  2810        5.0000        4.0000   765441   20.00%
   4887     5        4.0000  2749        5.0000        4.0000   768027   20.00%
   4895     4        4.0000  2818        5.0000        4.0000   765560   20.00%
   4939    29        4.0000  2775        5.0000        4.0000   778485   20.00%
   5154    98        4.0000  2558        5.0000        4.0000   804219   20.00%
                                                     Cuts: 41                  
   5552   347    infeasible              5.0000        4.0000   863335   20.00%
Elapsed time = 179.31 sec. (160346.30 ticks, tree = 5.83 MB)
   6109   883        4.0000  1908        5.0000        4.0000   947665   20.00%
   6766  1323        4.0000  2162        5.0000        4.0000   991191   20.00%
   7502  1848        4.0000  2047        5.0000        4.0000  1048512   20.00%
   8390  2646        4.0000  1627        5.0000        4.0000  1133511   20.00%
   9311  3575        4.0000  1383        5.0000        4.0000  1214578   20.00%
  10006  4186        4.0000   813        5.0000        4.0000  1275089   20.00%
  10513  4879        4.0000  1043        5.0000        4.0000  1354933   20.00%
  11320  5199        4.0000   665        5.0000        4.0000  1385541   20.00%
  12172  6065        4.0000   958        5.0000        4.0000  1470951   20.00%
  13033  7091        4.0000   481        5.0000        4.0000  1566864   20.00%
Elapsed time = 201.97 sec. (169897.03 ticks, tree = 182.70 MB)
  13971  7766        4.0000   823        5.0000        4.0000  1629176   20.00%
* 14847  8457      integral     0        4.0000        4.0000  1700610    0.00%
                                                      Cuts: 6                  
Found incumbent of value 4.000000 after 206.50 sec. (171766.79 ticks)
  14884  8650        4.0000   772        4.0000        4.0000  1713577    0.00%

Clique cuts applied:  209
Cover cuts applied:  2
Zero-half cuts applied:  21

Root node processing (before b&c):
  Real time             =   47.78 sec. (57402.87 ticks)
Parallel b&c, 16 threads:
  Real time             =  159.45 sec. (114909.32 ticks)
  Sync time (average)   =   26.45 sec.
  Wait time (average)   =    0.04 sec.
                          ------------
Total (root+branch&cut) =  207.23 sec. (172312.20 ticks)

--- MIP status (101): integer optimal solution.
--- Cplex Time: 207.23sec (det. 172312.24 ticks)

--- Fixing integer variables and solving final LP...

Version identifier: 20.1.0.1 | 2021-04-07 | 3a818710c
CPXPARAM_Advance                                 2
CPXPARAM_Threads                                 16
CPXPARAM_Parallel                                1
CPXPARAM_MIP_Display                             4
CPXPARAM_MIP_Pool_Capacity                       0
CPXPARAM_MIP_Tolerances_AbsMIPGap                0
CPXPARAM_MIP_Tolerances_MIPGap                   0
Parallel mode: deterministic, using up to 16 threads for concurrent optimization:
 * Starting dual Simplex on 1 thread...
 * Starting Barrier on 14 threads...
 * Starting primal Simplex on 1 thread...
Tried aggregator 1 time.
LP Presolve eliminated 50615 rows and 16111 columns.
All rows and columns eliminated.
Presolve time = 0.02 sec. (19.08 ticks)

Dual simplex solved model.


--- Fixed MIP status (1): optimal.
--- Cplex Time: 0.05sec (det. 35.52 ticks)


Proven optimal solution
MIP Solution:            4.000000    (1761095 iterations, 15114 nodes)
Final Solve:             4.000000    (0 iterations)

Best possible:           4.000000
Absolute gap:            0.000000
Relative gap:            0.000000

--- Reading solution for model color
--- ColorCounties.gms(6262) 27 Mb  207 secs
--- Executing after solve: elapsed 0:03:27.626
--- ColorCounties.gms(6278) 27 Mb
--- Putfile f C:\projects\OptimizationModels\GraphColoring\mapcolors.csv
*** Status: Normal completion
--- Job ColorCounties.gms Stop 01/23/22 19:57:00 elapsed 0:03:27.632
